
&CONTROL
  calculation = 'scf'
  restart_mode = 'from_scratch'
  pseudo_dir= '/content/qe-lite/pseudopotentials'
  prefix = 'graphene'
/
&SYSTEM
  ibrav = 4
  A = 2.47
  C = 7.80
  nat = 2
  ntyp = 1
  occupations = 'smearing'
  smearing = 'mv'
  degauss = 0.02
  ecutwfc = 40
/
&ELECTRONS
  mixing_beta = 0.3
  conv_thr = 1.0d-8
/
ATOMIC_SPECIES
C 12.01017 C.upf
ATOMIC_POSITIONS (angstrom)
C 0 0 0
C 1.235 0.713 0
K_POINTS (automatic)
10 10 1 0 0 0
