&CONTROL
  calculation = 'scf'
  etot_conv_thr =   8.0000000000d-05
  forc_conv_thr =   1.0000000000d-04
  outdir = './out/'
  prefix = 'aiida'
  pseudo_dir = './'
  tprnfor = .true.
  tstress = .true.
  verbosity = 'high'
/
&SYSTEM
  degauss =   2.0000000000d-02
  ecutrho =   4.8000000000d+02
  ecutwfc =   6.0000000000d+01
  ibrav = 0
  nat = 8
  nosym = .false.
  ntyp = 2
  occupations = 'smearing'
  smearing = 'cold'
/
&ELECTRONS
  conv_thr =   1.6000000000d-09
  electron_maxstep = 80
  mixing_beta =   4.0000000000d-01
/
ATOMIC_SPECIES
Sn     118.71 Sn.UPF
Te     127.6 Te.UPF
ATOMIC_POSITIONS crystal
Sn           0.0000000000       0.0000000000       0.0000000000
Sn           0.5000000000       0.5000000000       0.0000000000
Sn           0.5000000000       0.0000000000       0.5000000000
Sn           0.0000000000       0.5000000000       0.5000000000
Te           0.0000000000       0.0000000000       0.5000000000
Te           0.5000000000       0.0000000000       0.0000000000
Te           0.0000000000       0.5000000000       0.0000000000
Te           0.5000000000       0.5000000000       0.5000000000
K_POINTS automatic
7 7 7 0 0 0
CELL_PARAMETERS angstrom
      6.3716261300       0.0000000000       0.0000000000
      0.0000000000       6.3716261300       0.0000000000
      0.0000000000       0.0000000000       6.3716261300
