&CONTROL
   calculation      = 'scf'
   prefix           = 'graphene_4x4'
   pseudo_dir       = './'
/
&SYSTEM
   ecutwfc          = 40
   occupations      = 'smearing'
   degauss          = 0.02
   smearing         = 'mv'
   ntyp             = 1
   nat              = 32
   ibrav            = 0
/
&ELECTRONS
   conv_thr         = 1e-08
   mixing_beta      = 0.3
/
&IONS
/
&CELL
/
&FCP
/
&RISM
/
ATOMIC_SPECIES
C 12.011 C.upf

K_POINTS automatic
3 3 1  0 0 0

CELL_PARAMETERS angstrom
9.84000000000000 0.00000000000000 0.00000000000000
-4.92000000000000 8.52168997323888 0.00000000000000
0.00000000000000 -0.00000000000000 15.60000000000000

ATOMIC_POSITIONS angstrom
C 0.0000000000 0.0000000000 7.8000000000  
C 1.2300000000 0.7101408311 7.8000000000  
C -1.2300000000 2.1304224933 7.8000000000  
C 0.0000000000 2.8405633244 7.8000000000  
C -2.4600000000 4.2608449866 7.8000000000  
C -1.2300000000 4.9709858177 7.8000000000  
C -3.6900000000 6.3912674799 7.8000000000  
C -2.4600000000 7.1014083110 7.8000000000  
C 2.4600000000 0.0000000000 7.8000000000  
C 3.6900000000 0.7101408311 7.8000000000  
C 1.2300000000 2.1304224933 7.8000000000  
C 2.4600000000 2.8405633244 7.8000000000  
C 0.0000000000 4.2608449866 7.8000000000  
C 1.2300000000 4.9709858177 7.8000000000  
C -1.2300000000 6.3912674799 7.8000000000  
C 0.0000000000 7.1014083110 7.8000000000  
C 4.9200000000 0.0000000000 7.8000000000  
C 6.1500000000 0.7101408311 7.8000000000  
C 3.6900000000 2.1304224933 7.8000000000  
C 4.9200000000 2.8405633244 7.8000000000  
C 2.4600000000 4.2608449866 7.8000000000  
C 3.6900000000 4.9709858177 7.8000000000  
C 1.2300000000 6.3912674799 7.8000000000  
C 2.4600000000 7.1014083110 7.8000000000  
C 7.3800000000 0.0000000000 7.8000000000  
C 8.6100000000 0.7101408311 7.8000000000  
C 6.1500000000 2.1304224933 7.8000000000  
C 7.3800000000 2.8405633244 7.8000000000  
C 4.9200000000 4.2608449866 7.8000000000  
C 6.1500000000 4.9709858177 7.8000000000  
C 3.6900000000 6.3912674799 7.8000000000  
C 4.9200000000 7.1014083110 7.8000000000  

