&CONTROL
   calculation      = 'scf'
   prefix           = 'graphene_4x4'
   pseudo_dir       = './'
/
&SYSTEM
   ecutwfc          = 40
   occupations      = 'smearing'
   degauss          = 0.02
   smearing         = 'mv'
   ntyp             = 1
   nat              = 512
   ibrav            = 0
/
&ELECTRONS
   conv_thr         = 1e-08
   mixing_beta      = 0.3
/
&IONS
/
&CELL
/
&FCP
/
&RISM
/
ATOMIC_SPECIES
C 12.011 C.upf

K_POINTS automatic
3 3 1  0 0 0

CELL_PARAMETERS angstrom
39.36000000000000 0.00000000000000 0.00000000000000
-19.68000000000000 34.08675989295551 0.00000000000000
0.00000000000000 -0.00000000000000 15.60000000000000

ATOMIC_POSITIONS angstrom
C 0.0000000000 0.0000000000 7.8000000000  
C 1.2300000000 0.7101408311 7.8000000000  
C -1.2300000000 2.1304224933 7.8000000000  
C 0.0000000000 2.8405633244 7.8000000000  
C -2.4600000000 4.2608449866 7.8000000000  
C -1.2300000000 4.9709858177 7.8000000000  
C -3.6900000000 6.3912674799 7.8000000000  
C -2.4600000000 7.1014083110 7.8000000000  
C -4.9200000000 8.5216899732 7.8000000000  
C -3.6900000000 9.2318308043 7.8000000000  
C -6.1500000000 10.6521124665 7.8000000000  
C -4.9200000000 11.3622532977 7.8000000000  
C -7.3800000000 12.7825349599 7.8000000000  
C -6.1500000000 13.4926757910 7.8000000000  
C -8.6100000000 14.9129574532 7.8000000000  
C -7.3800000000 15.6230982843 7.8000000000  
C -9.8400000000 17.0433799465 7.8000000000  
C -8.6100000000 17.7535207776 7.8000000000  
C -11.0700000000 19.1738024398 7.8000000000  
C -9.8400000000 19.8839432709 7.8000000000  
C -12.3000000000 21.3042249331 7.8000000000  
C -11.0700000000 22.0143657642 7.8000000000  
C -13.5300000000 23.4346474264 7.8000000000  
C -12.3000000000 24.1447882575 7.8000000000  
C -14.7600000000 25.5650699197 7.8000000000  
C -13.5300000000 26.2752107508 7.8000000000  
C -15.9900000000 27.6954924130 7.8000000000  
C -14.7600000000 28.4056332441 7.8000000000  
C -17.2200000000 29.8259149063 7.8000000000  
C -15.9900000000 30.5360557374 7.8000000000  
C -18.4500000000 31.9563373996 7.8000000000  
C -17.2200000000 32.6664782307 7.8000000000  
C 2.4600000000 0.0000000000 7.8000000000  
C 3.6900000000 0.7101408311 7.8000000000  
C 1.2300000000 2.1304224933 7.8000000000  
C 2.4600000000 2.8405633244 7.8000000000  
C 0.0000000000 4.2608449866 7.8000000000  
C 1.2300000000 4.9709858177 7.8000000000  
C -1.2300000000 6.3912674799 7.8000000000  
C 0.0000000000 7.1014083110 7.8000000000  
C -2.4600000000 8.5216899732 7.8000000000  
C -1.2300000000 9.2318308043 7.8000000000  
C -3.6900000000 10.6521124665 7.8000000000  
C -2.4600000000 11.3622532977 7.8000000000  
C -4.9200000000 12.7825349599 7.8000000000  
C -3.6900000000 13.4926757910 7.8000000000  
C -6.1500000000 14.9129574532 7.8000000000  
C -4.9200000000 15.6230982843 7.8000000000  
C -7.3800000000 17.0433799465 7.8000000000  
C -6.1500000000 17.7535207776 7.8000000000  
C -8.6100000000 19.1738024398 7.8000000000  
C -7.3800000000 19.8839432709 7.8000000000  
C -9.8400000000 21.3042249331 7.8000000000  
C -8.6100000000 22.0143657642 7.8000000000  
C -11.0700000000 23.4346474264 7.8000000000  
C -9.8400000000 24.1447882575 7.8000000000  
C -12.3000000000 25.5650699197 7.8000000000  
C -11.0700000000 26.2752107508 7.8000000000  
C -13.5300000000 27.6954924130 7.8000000000  
C -12.3000000000 28.4056332441 7.8000000000  
C -14.7600000000 29.8259149063 7.8000000000  
C -13.5300000000 30.5360557374 7.8000000000  
C -15.9900000000 31.9563373996 7.8000000000  
C -14.7600000000 32.6664782307 7.8000000000  
C 4.9200000000 0.0000000000 7.8000000000  
C 6.1500000000 0.7101408311 7.8000000000  
C 3.6900000000 2.1304224933 7.8000000000  
C 4.9200000000 2.8405633244 7.8000000000  
C 2.4600000000 4.2608449866 7.8000000000  
C 3.6900000000 4.9709858177 7.8000000000  
C 1.2300000000 6.3912674799 7.8000000000  
C 2.4600000000 7.1014083110 7.8000000000  
C 0.0000000000 8.5216899732 7.8000000000  
C 1.2300000000 9.2318308043 7.8000000000  
C -1.2300000000 10.6521124665 7.8000000000  
C -0.0000000000 11.3622532977 7.8000000000  
C -2.4600000000 12.7825349599 7.8000000000  
C -1.2300000000 13.4926757910 7.8000000000  
C -3.6900000000 14.9129574532 7.8000000000  
C -2.4600000000 15.6230982843 7.8000000000  
C -4.9200000000 17.0433799465 7.8000000000  
C -3.6900000000 17.7535207776 7.8000000000  
C -6.1500000000 19.1738024398 7.8000000000  
C -4.9200000000 19.8839432709 7.8000000000  
C -7.3800000000 21.3042249331 7.8000000000  
C -6.1500000000 22.0143657642 7.8000000000  
C -8.6100000000 23.4346474264 7.8000000000  
C -7.3800000000 24.1447882575 7.8000000000  
C -9.8400000000 25.5650699197 7.8000000000  
C -8.6100000000 26.2752107508 7.8000000000  
C -11.0700000000 27.6954924130 7.8000000000  
C -9.8400000000 28.4056332441 7.8000000000  
C -12.3000000000 29.8259149063 7.8000000000  
C -11.0700000000 30.5360557374 7.8000000000  
C -13.5300000000 31.9563373996 7.8000000000  
C -12.3000000000 32.6664782307 7.8000000000  
C 7.3800000000 0.0000000000 7.8000000000  
C 8.6100000000 0.7101408311 7.8000000000  
C 6.1500000000 2.1304224933 7.8000000000  
C 7.3800000000 2.8405633244 7.8000000000  
C 4.9200000000 4.2608449866 7.8000000000  
C 6.1500000000 4.9709858177 7.8000000000  
C 3.6900000000 6.3912674799 7.8000000000  
C 4.9200000000 7.1014083110 7.8000000000  
C 2.4600000000 8.5216899732 7.8000000000  
C 3.6900000000 9.2318308043 7.8000000000  
C 1.2300000000 10.6521124665 7.8000000000  
C 2.4600000000 11.3622532977 7.8000000000  
C 0.0000000000 12.7825349599 7.8000000000  
C 1.2300000000 13.4926757910 7.8000000000  
C -1.2300000000 14.9129574532 7.8000000000  
C 0.0000000000 15.6230982843 7.8000000000  
C -2.4600000000 17.0433799465 7.8000000000  
C -1.2300000000 17.7535207776 7.8000000000  
C -3.6900000000 19.1738024398 7.8000000000  
C -2.4600000000 19.8839432709 7.8000000000  
C -4.9200000000 21.3042249331 7.8000000000  
C -3.6900000000 22.0143657642 7.8000000000  
C -6.1500000000 23.4346474264 7.8000000000  
C -4.9200000000 24.1447882575 7.8000000000  
C -7.3800000000 25.5650699197 7.8000000000  
C -6.1500000000 26.2752107508 7.8000000000  
C -8.6100000000 27.6954924130 7.8000000000  
C -7.3800000000 28.4056332441 7.8000000000  
C -9.8400000000 29.8259149063 7.8000000000  
C -8.6100000000 30.5360557374 7.8000000000  
C -11.0700000000 31.9563373996 7.8000000000  
C -9.8400000000 32.6664782307 7.8000000000  
C 9.8400000000 0.0000000000 7.8000000000  
C 11.0700000000 0.7101408311 7.8000000000  
C 8.6100000000 2.1304224933 7.8000000000  
C 9.8400000000 2.8405633244 7.8000000000  
C 7.3800000000 4.2608449866 7.8000000000  
C 8.6100000000 4.9709858177 7.8000000000  
C 6.1500000000 6.3912674799 7.8000000000  
C 7.3800000000 7.1014083110 7.8000000000  
C 4.9200000000 8.5216899732 7.8000000000  
C 6.1500000000 9.2318308043 7.8000000000  
C 3.6900000000 10.6521124665 7.8000000000  
C 4.9200000000 11.3622532977 7.8000000000  
C 2.4600000000 12.7825349599 7.8000000000  
C 3.6900000000 13.4926757910 7.8000000000  
C 1.2300000000 14.9129574532 7.8000000000  
C 2.4600000000 15.6230982843 7.8000000000  
C 0.0000000000 17.0433799465 7.8000000000  
C 1.2300000000 17.7535207776 7.8000000000  
C -1.2300000000 19.1738024398 7.8000000000  
C -0.0000000000 19.8839432709 7.8000000000  
C -2.4600000000 21.3042249331 7.8000000000  
C -1.2300000000 22.0143657642 7.8000000000  
C -3.6900000000 23.4346474264 7.8000000000  
C -2.4600000000 24.1447882575 7.8000000000  
C -4.9200000000 25.5650699197 7.8000000000  
C -3.6900000000 26.2752107508 7.8000000000  
C -6.1500000000 27.6954924130 7.8000000000  
C -4.9200000000 28.4056332441 7.8000000000  
C -7.3800000000 29.8259149063 7.8000000000  
C -6.1500000000 30.5360557374 7.8000000000  
C -8.6100000000 31.9563373996 7.8000000000  
C -7.3800000000 32.6664782307 7.8000000000  
C 12.3000000000 0.0000000000 7.8000000000  
C 13.5300000000 0.7101408311 7.8000000000  
C 11.0700000000 2.1304224933 7.8000000000  
C 12.3000000000 2.8405633244 7.8000000000  
C 9.8400000000 4.2608449866 7.8000000000  
C 11.0700000000 4.9709858177 7.8000000000  
C 8.6100000000 6.3912674799 7.8000000000  
C 9.8400000000 7.1014083110 7.8000000000  
C 7.3800000000 8.5216899732 7.8000000000  
C 8.6100000000 9.2318308043 7.8000000000  
C 6.1500000000 10.6521124665 7.8000000000  
C 7.3800000000 11.3622532977 7.8000000000  
C 4.9200000000 12.7825349599 7.8000000000  
C 6.1500000000 13.4926757910 7.8000000000  
C 3.6900000000 14.9129574532 7.8000000000  
C 4.9200000000 15.6230982843 7.8000000000  
C 2.4600000000 17.0433799465 7.8000000000  
C 3.6900000000 17.7535207776 7.8000000000  
C 1.2300000000 19.1738024398 7.8000000000  
C 2.4600000000 19.8839432709 7.8000000000  
C 0.0000000000 21.3042249331 7.8000000000  
C 1.2300000000 22.0143657642 7.8000000000  
C -1.2300000000 23.4346474264 7.8000000000  
C 0.0000000000 24.1447882575 7.8000000000  
C -2.4600000000 25.5650699197 7.8000000000  
C -1.2300000000 26.2752107508 7.8000000000  
C -3.6900000000 27.6954924130 7.8000000000  
C -2.4600000000 28.4056332441 7.8000000000  
C -4.9200000000 29.8259149063 7.8000000000  
C -3.6900000000 30.5360557374 7.8000000000  
C -6.1500000000 31.9563373996 7.8000000000  
C -4.9200000000 32.6664782307 7.8000000000  
C 14.7600000000 0.0000000000 7.8000000000  
C 15.9900000000 0.7101408311 7.8000000000  
C 13.5300000000 2.1304224933 7.8000000000  
C 14.7600000000 2.8405633244 7.8000000000  
C 12.3000000000 4.2608449866 7.8000000000  
C 13.5300000000 4.9709858177 7.8000000000  
C 11.0700000000 6.3912674799 7.8000000000  
C 12.3000000000 7.1014083110 7.8000000000  
C 9.8400000000 8.5216899732 7.8000000000  
C 11.0700000000 9.2318308043 7.8000000000  
C 8.6100000000 10.6521124665 7.8000000000  
C 9.8400000000 11.3622532977 7.8000000000  
C 7.3800000000 12.7825349599 7.8000000000  
C 8.6100000000 13.4926757910 7.8000000000  
C 6.1500000000 14.9129574532 7.8000000000  
C 7.3800000000 15.6230982843 7.8000000000  
C 4.9200000000 17.0433799465 7.8000000000  
C 6.1500000000 17.7535207776 7.8000000000  
C 3.6900000000 19.1738024398 7.8000000000  
C 4.9200000000 19.8839432709 7.8000000000  
C 2.4600000000 21.3042249331 7.8000000000  
C 3.6900000000 22.0143657642 7.8000000000  
C 1.2300000000 23.4346474264 7.8000000000  
C 2.4600000000 24.1447882575 7.8000000000  
C 0.0000000000 25.5650699197 7.8000000000  
C 1.2300000000 26.2752107508 7.8000000000  
C -1.2300000000 27.6954924130 7.8000000000  
C -0.0000000000 28.4056332441 7.8000000000  
C -2.4600000000 29.8259149063 7.8000000000  
C -1.2300000000 30.5360557374 7.8000000000  
C -3.6900000000 31.9563373996 7.8000000000  
C -2.4600000000 32.6664782307 7.8000000000  
C 17.2200000000 0.0000000000 7.8000000000  
C 18.4500000000 0.7101408311 7.8000000000  
C 15.9900000000 2.1304224933 7.8000000000  
C 17.2200000000 2.8405633244 7.8000000000  
C 14.7600000000 4.2608449866 7.8000000000  
C 15.9900000000 4.9709858177 7.8000000000  
C 13.5300000000 6.3912674799 7.8000000000  
C 14.7600000000 7.1014083110 7.8000000000  
C 12.3000000000 8.5216899732 7.8000000000  
C 13.5300000000 9.2318308043 7.8000000000  
C 11.0700000000 10.6521124665 7.8000000000  
C 12.3000000000 11.3622532977 7.8000000000  
C 9.8400000000 12.7825349599 7.8000000000  
C 11.0700000000 13.4926757910 7.8000000000  
C 8.6100000000 14.9129574532 7.8000000000  
C 9.8400000000 15.6230982843 7.8000000000  
C 7.3800000000 17.0433799465 7.8000000000  
C 8.6100000000 17.7535207776 7.8000000000  
C 6.1500000000 19.1738024398 7.8000000000  
C 7.3800000000 19.8839432709 7.8000000000  
C 4.9200000000 21.3042249331 7.8000000000  
C 6.1500000000 22.0143657642 7.8000000000  
C 3.6900000000 23.4346474264 7.8000000000  
C 4.9200000000 24.1447882575 7.8000000000  
C 2.4600000000 25.5650699197 7.8000000000  
C 3.6900000000 26.2752107508 7.8000000000  
C 1.2300000000 27.6954924130 7.8000000000  
C 2.4600000000 28.4056332441 7.8000000000  
C 0.0000000000 29.8259149063 7.8000000000  
C 1.2300000000 30.5360557374 7.8000000000  
C -1.2300000000 31.9563373996 7.8000000000  
C -0.0000000000 32.6664782307 7.8000000000  
C 19.6800000000 0.0000000000 7.8000000000  
C 20.9100000000 0.7101408311 7.8000000000  
C 18.4500000000 2.1304224933 7.8000000000  
C 19.6800000000 2.8405633244 7.8000000000  
C 17.2200000000 4.2608449866 7.8000000000  
C 18.4500000000 4.9709858177 7.8000000000  
C 15.9900000000 6.3912674799 7.8000000000  
C 17.2200000000 7.1014083110 7.8000000000  
C 14.7600000000 8.5216899732 7.8000000000  
C 15.9900000000 9.2318308043 7.8000000000  
C 13.5300000000 10.6521124665 7.8000000000  
C 14.7600000000 11.3622532977 7.8000000000  
C 12.3000000000 12.7825349599 7.8000000000  
C 13.5300000000 13.4926757910 7.8000000000  
C 11.0700000000 14.9129574532 7.8000000000  
C 12.3000000000 15.6230982843 7.8000000000  
C 9.8400000000 17.0433799465 7.8000000000  
C 11.0700000000 17.7535207776 7.8000000000  
C 8.6100000000 19.1738024398 7.8000000000  
C 9.8400000000 19.8839432709 7.8000000000  
C 7.3800000000 21.3042249331 7.8000000000  
C 8.6100000000 22.0143657642 7.8000000000  
C 6.1500000000 23.4346474264 7.8000000000  
C 7.3800000000 24.1447882575 7.8000000000  
C 4.9200000000 25.5650699197 7.8000000000  
C 6.1500000000 26.2752107508 7.8000000000  
C 3.6900000000 27.6954924130 7.8000000000  
C 4.9200000000 28.4056332441 7.8000000000  
C 2.4600000000 29.8259149063 7.8000000000  
C 3.6900000000 30.5360557374 7.8000000000  
C 1.2300000000 31.9563373996 7.8000000000  
C 2.4600000000 32.6664782307 7.8000000000  
C 22.1400000000 0.0000000000 7.8000000000  
C 23.3700000000 0.7101408311 7.8000000000  
C 20.9100000000 2.1304224933 7.8000000000  
C 22.1400000000 2.8405633244 7.8000000000  
C 19.6800000000 4.2608449866 7.8000000000  
C 20.9100000000 4.9709858177 7.8000000000  
C 18.4500000000 6.3912674799 7.8000000000  
C 19.6800000000 7.1014083110 7.8000000000  
C 17.2200000000 8.5216899732 7.8000000000  
C 18.4500000000 9.2318308043 7.8000000000  
C 15.9900000000 10.6521124665 7.8000000000  
C 17.2200000000 11.3622532977 7.8000000000  
C 14.7600000000 12.7825349599 7.8000000000  
C 15.9900000000 13.4926757910 7.8000000000  
C 13.5300000000 14.9129574532 7.8000000000  
C 14.7600000000 15.6230982843 7.8000000000  
C 12.3000000000 17.0433799465 7.8000000000  
C 13.5300000000 17.7535207776 7.8000000000  
C 11.0700000000 19.1738024398 7.8000000000  
C 12.3000000000 19.8839432709 7.8000000000  
C 9.8400000000 21.3042249331 7.8000000000  
C 11.0700000000 22.0143657642 7.8000000000  
C 8.6100000000 23.4346474264 7.8000000000  
C 9.8400000000 24.1447882575 7.8000000000  
C 7.3800000000 25.5650699197 7.8000000000  
C 8.6100000000 26.2752107508 7.8000000000  
C 6.1500000000 27.6954924130 7.8000000000  
C 7.3800000000 28.4056332441 7.8000000000  
C 4.9200000000 29.8259149063 7.8000000000  
C 6.1500000000 30.5360557374 7.8000000000  
C 3.6900000000 31.9563373996 7.8000000000  
C 4.9200000000 32.6664782307 7.8000000000  
C 24.6000000000 0.0000000000 7.8000000000  
C 25.8300000000 0.7101408311 7.8000000000  
C 23.3700000000 2.1304224933 7.8000000000  
C 24.6000000000 2.8405633244 7.8000000000  
C 22.1400000000 4.2608449866 7.8000000000  
C 23.3700000000 4.9709858177 7.8000000000  
C 20.9100000000 6.3912674799 7.8000000000  
C 22.1400000000 7.1014083110 7.8000000000  
C 19.6800000000 8.5216899732 7.8000000000  
C 20.9100000000 9.2318308043 7.8000000000  
C 18.4500000000 10.6521124665 7.8000000000  
C 19.6800000000 11.3622532977 7.8000000000  
C 17.2200000000 12.7825349599 7.8000000000  
C 18.4500000000 13.4926757910 7.8000000000  
C 15.9900000000 14.9129574532 7.8000000000  
C 17.2200000000 15.6230982843 7.8000000000  
C 14.7600000000 17.0433799465 7.8000000000  
C 15.9900000000 17.7535207776 7.8000000000  
C 13.5300000000 19.1738024398 7.8000000000  
C 14.7600000000 19.8839432709 7.8000000000  
C 12.3000000000 21.3042249331 7.8000000000  
C 13.5300000000 22.0143657642 7.8000000000  
C 11.0700000000 23.4346474264 7.8000000000  
C 12.3000000000 24.1447882575 7.8000000000  
C 9.8400000000 25.5650699197 7.8000000000  
C 11.0700000000 26.2752107508 7.8000000000  
C 8.6100000000 27.6954924130 7.8000000000  
C 9.8400000000 28.4056332441 7.8000000000  
C 7.3800000000 29.8259149063 7.8000000000  
C 8.6100000000 30.5360557374 7.8000000000  
C 6.1500000000 31.9563373996 7.8000000000  
C 7.3800000000 32.6664782307 7.8000000000  
C 27.0600000000 0.0000000000 7.8000000000  
C 28.2900000000 0.7101408311 7.8000000000  
C 25.8300000000 2.1304224933 7.8000000000  
C 27.0600000000 2.8405633244 7.8000000000  
C 24.6000000000 4.2608449866 7.8000000000  
C 25.8300000000 4.9709858177 7.8000000000  
C 23.3700000000 6.3912674799 7.8000000000  
C 24.6000000000 7.1014083110 7.8000000000  
C 22.1400000000 8.5216899732 7.8000000000  
C 23.3700000000 9.2318308043 7.8000000000  
C 20.9100000000 10.6521124665 7.8000000000  
C 22.1400000000 11.3622532977 7.8000000000  
C 19.6800000000 12.7825349599 7.8000000000  
C 20.9100000000 13.4926757910 7.8000000000  
C 18.4500000000 14.9129574532 7.8000000000  
C 19.6800000000 15.6230982843 7.8000000000  
C 17.2200000000 17.0433799465 7.8000000000  
C 18.4500000000 17.7535207776 7.8000000000  
C 15.9900000000 19.1738024398 7.8000000000  
C 17.2200000000 19.8839432709 7.8000000000  
C 14.7600000000 21.3042249331 7.8000000000  
C 15.9900000000 22.0143657642 7.8000000000  
C 13.5300000000 23.4346474264 7.8000000000  
C 14.7600000000 24.1447882575 7.8000000000  
C 12.3000000000 25.5650699197 7.8000000000  
C 13.5300000000 26.2752107508 7.8000000000  
C 11.0700000000 27.6954924130 7.8000000000  
C 12.3000000000 28.4056332441 7.8000000000  
C 9.8400000000 29.8259149063 7.8000000000  
C 11.0700000000 30.5360557374 7.8000000000  
C 8.6100000000 31.9563373996 7.8000000000  
C 9.8400000000 32.6664782307 7.8000000000  
C 29.5200000000 0.0000000000 7.8000000000  
C 30.7500000000 0.7101408311 7.8000000000  
C 28.2900000000 2.1304224933 7.8000000000  
C 29.5200000000 2.8405633244 7.8000000000  
C 27.0600000000 4.2608449866 7.8000000000  
C 28.2900000000 4.9709858177 7.8000000000  
C 25.8300000000 6.3912674799 7.8000000000  
C 27.0600000000 7.1014083110 7.8000000000  
C 24.6000000000 8.5216899732 7.8000000000  
C 25.8300000000 9.2318308043 7.8000000000  
C 23.3700000000 10.6521124665 7.8000000000  
C 24.6000000000 11.3622532977 7.8000000000  
C 22.1400000000 12.7825349599 7.8000000000  
C 23.3700000000 13.4926757910 7.8000000000  
C 20.9100000000 14.9129574532 7.8000000000  
C 22.1400000000 15.6230982843 7.8000000000  
C 19.6800000000 17.0433799465 7.8000000000  
C 20.9100000000 17.7535207776 7.8000000000  
C 18.4500000000 19.1738024398 7.8000000000  
C 19.6800000000 19.8839432709 7.8000000000  
C 17.2200000000 21.3042249331 7.8000000000  
C 18.4500000000 22.0143657642 7.8000000000  
C 15.9900000000 23.4346474264 7.8000000000  
C 17.2200000000 24.1447882575 7.8000000000  
C 14.7600000000 25.5650699197 7.8000000000  
C 15.9900000000 26.2752107508 7.8000000000  
C 13.5300000000 27.6954924130 7.8000000000  
C 14.7600000000 28.4056332441 7.8000000000  
C 12.3000000000 29.8259149063 7.8000000000  
C 13.5300000000 30.5360557374 7.8000000000  
C 11.0700000000 31.9563373996 7.8000000000  
C 12.3000000000 32.6664782307 7.8000000000  
C 31.9800000000 0.0000000000 7.8000000000  
C 33.2100000000 0.7101408311 7.8000000000  
C 30.7500000000 2.1304224933 7.8000000000  
C 31.9800000000 2.8405633244 7.8000000000  
C 29.5200000000 4.2608449866 7.8000000000  
C 30.7500000000 4.9709858177 7.8000000000  
C 28.2900000000 6.3912674799 7.8000000000  
C 29.5200000000 7.1014083110 7.8000000000  
C 27.0600000000 8.5216899732 7.8000000000  
C 28.2900000000 9.2318308043 7.8000000000  
C 25.8300000000 10.6521124665 7.8000000000  
C 27.0600000000 11.3622532977 7.8000000000  
C 24.6000000000 12.7825349599 7.8000000000  
C 25.8300000000 13.4926757910 7.8000000000  
C 23.3700000000 14.9129574532 7.8000000000  
C 24.6000000000 15.6230982843 7.8000000000  
C 22.1400000000 17.0433799465 7.8000000000  
C 23.3700000000 17.7535207776 7.8000000000  
C 20.9100000000 19.1738024398 7.8000000000  
C 22.1400000000 19.8839432709 7.8000000000  
C 19.6800000000 21.3042249331 7.8000000000  
C 20.9100000000 22.0143657642 7.8000000000  
C 18.4500000000 23.4346474264 7.8000000000  
C 19.6800000000 24.1447882575 7.8000000000  
C 17.2200000000 25.5650699197 7.8000000000  
C 18.4500000000 26.2752107508 7.8000000000  
C 15.9900000000 27.6954924130 7.8000000000  
C 17.2200000000 28.4056332441 7.8000000000  
C 14.7600000000 29.8259149063 7.8000000000  
C 15.9900000000 30.5360557374 7.8000000000  
C 13.5300000000 31.9563373996 7.8000000000  
C 14.7600000000 32.6664782307 7.8000000000  
C 34.4400000000 0.0000000000 7.8000000000  
C 35.6700000000 0.7101408311 7.8000000000  
C 33.2100000000 2.1304224933 7.8000000000  
C 34.4400000000 2.8405633244 7.8000000000  
C 31.9800000000 4.2608449866 7.8000000000  
C 33.2100000000 4.9709858177 7.8000000000  
C 30.7500000000 6.3912674799 7.8000000000  
C 31.9800000000 7.1014083110 7.8000000000  
C 29.5200000000 8.5216899732 7.8000000000  
C 30.7500000000 9.2318308043 7.8000000000  
C 28.2900000000 10.6521124665 7.8000000000  
C 29.5200000000 11.3622532977 7.8000000000  
C 27.0600000000 12.7825349599 7.8000000000  
C 28.2900000000 13.4926757910 7.8000000000  
C 25.8300000000 14.9129574532 7.8000000000  
C 27.0600000000 15.6230982843 7.8000000000  
C 24.6000000000 17.0433799465 7.8000000000  
C 25.8300000000 17.7535207776 7.8000000000  
C 23.3700000000 19.1738024398 7.8000000000  
C 24.6000000000 19.8839432709 7.8000000000  
C 22.1400000000 21.3042249331 7.8000000000  
C 23.3700000000 22.0143657642 7.8000000000  
C 20.9100000000 23.4346474264 7.8000000000  
C 22.1400000000 24.1447882575 7.8000000000  
C 19.6800000000 25.5650699197 7.8000000000  
C 20.9100000000 26.2752107508 7.8000000000  
C 18.4500000000 27.6954924130 7.8000000000  
C 19.6800000000 28.4056332441 7.8000000000  
C 17.2200000000 29.8259149063 7.8000000000  
C 18.4500000000 30.5360557374 7.8000000000  
C 15.9900000000 31.9563373996 7.8000000000  
C 17.2200000000 32.6664782307 7.8000000000  
C 36.9000000000 0.0000000000 7.8000000000  
C 38.1300000000 0.7101408311 7.8000000000  
C 35.6700000000 2.1304224933 7.8000000000  
C 36.9000000000 2.8405633244 7.8000000000  
C 34.4400000000 4.2608449866 7.8000000000  
C 35.6700000000 4.9709858177 7.8000000000  
C 33.2100000000 6.3912674799 7.8000000000  
C 34.4400000000 7.1014083110 7.8000000000  
C 31.9800000000 8.5216899732 7.8000000000  
C 33.2100000000 9.2318308043 7.8000000000  
C 30.7500000000 10.6521124665 7.8000000000  
C 31.9800000000 11.3622532977 7.8000000000  
C 29.5200000000 12.7825349599 7.8000000000  
C 30.7500000000 13.4926757910 7.8000000000  
C 28.2900000000 14.9129574532 7.8000000000  
C 29.5200000000 15.6230982843 7.8000000000  
C 27.0600000000 17.0433799465 7.8000000000  
C 28.2900000000 17.7535207776 7.8000000000  
C 25.8300000000 19.1738024398 7.8000000000  
C 27.0600000000 19.8839432709 7.8000000000  
C 24.6000000000 21.3042249331 7.8000000000  
C 25.8300000000 22.0143657642 7.8000000000  
C 23.3700000000 23.4346474264 7.8000000000  
C 24.6000000000 24.1447882575 7.8000000000  
C 22.1400000000 25.5650699197 7.8000000000  
C 23.3700000000 26.2752107508 7.8000000000  
C 20.9100000000 27.6954924130 7.8000000000  
C 22.1400000000 28.4056332441 7.8000000000  
C 19.6800000000 29.8259149063 7.8000000000  
C 20.9100000000 30.5360557374 7.8000000000  
C 18.4500000000 31.9563373996 7.8000000000  
C 19.6800000000 32.6664782307 7.8000000000  

