
&CONTROL
  calculation = 'scf'
  restart_mode = 'from_scratch'
  pseudo_dir= '/content/qe-lite/pseudopotentials'
  prefix = 'graphene'
/
&SYSTEM
  ibrav = 4
  celldm(1)=4.7
  celldm(3) = 3.5
!  a = 2.47
!  c = 7.80
  nat = 2
  ntyp = 1
  occupations = 'smearing'
  smearing = 'mv'
  degauss = 0.02
  ecutwfc = 40
/
&ELECTRONS
  mixing_beta = 0.3
  conv_thr = 1.0d-8
/
ATOMIC_SPECIES
C 12.01017 C.upf
ATOMIC_POSITIONS (crystal)
C 0.6 0.3 0.5
C 0.3 0.6 0.5
K_POINTS (automatic)
10 10 1 0 0 0
