
&CONTROL
  calculation = 'scf'
  restart_mode = 'from_scratch'
  pseudo_dir = './'
  prefix = 'graphene_unit'
/

&SYSTEM
  ibrav = 4
  A = 2.46
  C = 7.8
  nat = 2
  ntyp = 1
  ecutwfc = 40
  occupations = 'smearing'
  smearing = 'mv'
  degauss = 0.02
/

&ELECTRONS
  mixing_beta = 0.3
  conv_thr = 1.0d-8
/

ATOMIC_SPECIES
C 12.0107 C.upf

ATOMIC_POSITIONS (crystal)
C 0.66667 0.33333 0.5
C 0.33333 0.66667 0.5

K_POINTS automatic
10 10 1 0 0 0

