&CONTROL
  calculation = 'scf'
  restart_mode = 'from_scratch'
  pseudo_dir = '/content/qe-lite/pseudopotentials'
  prefix = 'graphene_2x2'
/

&SYSTEM
  ibrav = 0
  nat = 2
  ntyp = 1
  ecutwfc = 40
  occupations = 'smearing'
  smearing = 'mv'
  degauss = 0.02
/

&ELECTRONS
  mixing_beta = 0.3
  conv_thr = 1.0d-8
/

ATOMIC_SPECIES
C 12.0107 C.upf

CELL_PARAMETERS angstrom
  4.94     0.000   0.0
 -2.47     4.278   0.0
  0.000    0.000   7.8

ATOMIC_POSITIONS angstrom
C  1.482  0.741  3.9
C  0.741  1.482  3.9


K_POINTS automatic
5 5 1 0 0 0