
&CONTROL
  calculation = 'scf'
  restart_mode = 'from_scratch'
  pseudo_dir = '/content/qe-lite/pseudopotentials'
  prefix = 'graphene_4x4'
/

&SYSTEM
  ibrav = 0
  nat = 32
  ntyp = 1
  ecutwfc = 40
  occupations = 'smearing'
  smearing = 'mv'
  degauss = 0.02
/

&ELECTRONS
  mixing_beta = 0.3
  conv_thr = 1.0d-8
/

ATOMIC_SPECIES
C 12.0107 C.upf

CELL_PARAMETERS angstrom
  9.88     0.000   0.0
 -4.94     8.556   0.0
  0.000    0.000   7.8

ATOMIC_POSITIONS angstrom
C  1.482  0.741  3.9
C  0.741  1.482  3.9
C  3.952  0.741  3.9
C  3.211  1.482  3.9
C  6.422  0.741  3.9
C  5.681  1.482  3.9
C  8.892  0.741  3.9
C  8.151  1.482  3.9
C  1.482  3.221  3.9
C  0.741  3.962  3.9
C  3.952  3.221  3.9
C  3.211  3.962  3.9
C  6.422  3.221  3.9
C  5.681  3.962  3.9
C  8.892  3.221  3.9
C  8.151  3.962  3.9
C  1.482  5.701  3.9
C  0.741  6.442  3.9
C  3.952  5.701  3.9
C  3.211  6.442  3.9
C  6.422  5.701  3.9
C  5.681  6.442  3.9
C  8.892  5.701  3.9
C  8.151  6.442  3.9
C  1.482  8.181  3.9
C  0.741  8.922  3.9
C  3.952  8.181  3.9
C  3.211  8.922  3.9
C  6.422  8.181  3.9
C  5.681  8.922  3.9
C  8.892  8.181  3.9
C  8.151  8.922  3.9

K_POINTS automatic
3 3 1 0 0 0

