
&CONTROL
  calculation = 'scf'
  restart_mode = 'from_scratch'
  pseudo_dir = '/content/qe-lite/pseudopotentials'
  prefix = 'silicon'
  outdir = './tmp'
/
&SYSTEM
  ibrav = 2
  celldm(1) = 10.26
  nat = 2
  ntyp = 1
  ecutwfc = 40
  ecutrho = 320
/
&ELECTRONS
  mixing_beta = 0.7
  conv_thr = 1.0d-8
/
ATOMIC_SPECIES
Si 28.0855 Si.upf
ATOMIC_POSITIONS (crystal)
Si 0.00 0.00 0.00
Si 0.25 0.25 0.25
K_POINTS automatic
6 6 6 0 0 0
