&CONTROL
  calculation = 'scf',
  prefix = 'water',
  outdir = './tmp/',
  pseudo_dir = './pseudo/'
/

&SYSTEM
  ibrav = 1,
  celldm(1) = 20.0,
  nat = 3,
  ntyp = 2,
  ecutwfc = 40.0
/

&ELECTRONS
  conv_thr = 1.0d-8
/

ATOMIC_SPECIES
  H  1.0079   H.UPF
  O  15.999   O.UPF

ATOMIC_POSITIONS (angstrom)
  O  0.0000  0.0000  0.0000
  H  0.7570  0.5860  0.0000
  H -0.7570  0.5860  0.0000

K_POINTS gamma
